NAME : D-n15-k5
CAPACITY : 778
NODE_COORD_SECTION
1   248   67
2   84   240
3   178   459
4   161   60
5   269   261
6   272   115
7   270   499
8   146   231
9   223   191
10   174   102
11   246   287
12   205   347
13   418   462
14   155   264
15   59   118
DEMAND_SECTION
1   0
2   50
3   72
4   79
5   79
6   49
7   29
8   75
9   43
10   62
11   94
12   19
13   19
14   45
15   38
DEPOT_SECTION
    1
    -1
EOF